[2026-03-23T16:03:46.350Z] Pipeline "set_exp_3_exp_3_n027_c002_g004" → 2026_03_23_16_03_46_set_exp_3_exp_3_n027_c002_g004_max.sol
Set parameter WLSAccessID
Set parameter WLSSecret
Set parameter LicenseID to value 2792458
Set parameter LogFile to value "gurobi.log"
Using license file /root/gurobi.lic
Academic license 2792458 - for non-commercial use only - registered to an___@studenti.unipg.it

Gurobi Optimizer version 13.0.1 build v13.0.1rc0 (linux64 - "Ubuntu 24.04.4 LTS")
Copyright (c) 2026, Gurobi Optimization, LLC

Warning: Duplicate section found (read 'binary') - Is a variable name equal to an LP file format keyword?
Warning: Duplicate section found (read 'binary') - Is a variable name equal to an LP file format keyword?
Warning: Duplicate section found (read 'binary') - Is a variable name equal to an LP file format keyword?
Warning: Duplicate section found (read 'binary') - Is a variable name equal to an LP file format keyword?
Warning: Duplicate section found (read 'binary') - Is a variable name equal to an LP file format keyword?
Warning: Duplicate section found (read 'binary') - Is a variable name equal to an LP file format keyword?
Warning: Duplicate section found (read 'binary') - Is a variable name equal to an LP file format keyword?
Warning: Duplicate section found (read 'binary') - Is a variable name equal to an LP file format keyword?
Warning: Duplicate section found (read 'binary') - Is a variable name equal to an LP file format keyword?
Warning: Duplicate section found (read 'binary') - Is a variable name equal to an LP file format keyword?
Warning: Further warnings of this type will be omitted.
Read LP format model from file /root/bgw/data/uploads/2026_03_23_16_03_46_set_exp_3_exp_3_n027_c002_g004_max.lp
Reading time = 0.01 seconds
: 6803 rows, 558 columns, 20146 nonzeros

Using Gurobi shared library /opt/gurobi1301/linux64/lib/libgurobi.so.13.0.1

CPU model: AMD EPYC-Genoa Processor, instruction set [SSE2|AVX|AVX2|AVX512]
Thread count: 16 physical cores, 16 logical processors, using up to 16 threads

Academic license 2792458 - for non-commercial use only - registered to an___@studenti.unipg.it
Optimize a model with 6803 rows, 558 columns and 20146 nonzeros (Max)
Model fingerprint: 0x43420418
Model has 6 linear objective coefficients
Variable types: 33 continuous, 525 integer (525 binary)
Coefficient statistics:
  Matrix range     [1e+00, 3e+01]
  Objective range  [1e+00, 1e+00]
  Bounds range     [1e+00, 1e+00]
  RHS range        [1e+00, 3e+01]

Found heuristic solution: objective 6.0000000
Presolve removed 932 rows and 194 columns
Presolve time: 0.02s
Presolved: 5871 rows, 364 columns, 17733 nonzeros
Variable types: 0 continuous, 364 integer (359 binary)

Root relaxation: objective 2.700000e+01, 253 iterations, 0.02 seconds (0.02 work units)

    Nodes    |    Current Node    |     Objective Bounds      |     Work
 Expl Unexpl |  Obj  Depth IntInf | Incumbent    BestBd   Gap | It/Node Time

     0     0   27.00000    0   12    6.00000   27.00000   350%     -    0s
H    0     0                      14.0000000   27.00000  92.9%     -    0s
H    0     0                      17.0000000   27.00000  58.8%     -    0s
     0     0   27.00000    0   14   17.00000   27.00000  58.8%     -    0s
     0     0   27.00000    0   14   17.00000   27.00000  58.8%     -    0s
     0     0   27.00000    0   14   17.00000   27.00000  58.8%     -    0s
     0     0   27.00000    0   14   17.00000   27.00000  58.8%     -    0s
     0     0   27.00000    0   14   17.00000   27.00000  58.8%     -    0s
     0     0   27.00000    0   12   17.00000   27.00000  58.8%     -    0s
     0     0   26.00000    0   15   17.00000   26.00000  52.9%     -    0s
     0     0   26.00000    0   14   17.00000   26.00000  52.9%     -    0s
     0     0   26.00000    0   15   17.00000   26.00000  52.9%     -    0s
     0     0   26.00000    0   12   17.00000   26.00000  52.9%     -    0s
     0     0   25.84000    0   13   17.00000   25.84000  52.0%     -    0s
     0     0   24.00000    0   14   17.00000   24.00000  41.2%     -    0s
     0     0   24.00000    0   14   17.00000   24.00000  41.2%     -    0s
     0     0   24.00000    0   14   17.00000   24.00000  41.2%     -    0s
     0     0   24.00000    0   14   17.00000   24.00000  41.2%     -    0s
     0     2   24.00000    0   12   17.00000   24.00000  41.2%     -    0s

Cutting planes:
  Gomory: 3
  Cover: 1
  MIR: 5
  Inf proof: 2
  Zero half: 5

Explored 250 nodes (12119 simplex iterations) in 0.52 seconds (0.51 work units)
Thread count was 16 (of 16 available processors)

Solution count 3: 17 14 6 

Optimal solution found (tolerance 1.00e-04)
Best objective 1.700000000000e+01, best bound 1.700000000000e+01, gap 0.0000%

Wrote result file '/root/bgw/data/results/2026_03_23_16_03_46_set_exp_3_exp_3_n027_c002_g004_max.sol'

